39 20 92 66 79 61 89 8 78 50 67 69 76 88 93 86 1 45 55 62 91 72 35 87 77 7 38 97 60 46 27 75 81 64 26 19 84 57 47 80 13 5 37 54 40 49 42 94 59 90 14 56 0 82 41 18 30 17 22 6 15 43 99 70 48 9 25 63 65 31 85 68 36 23 95 10 98 71 74 44 34 11 21 96 16 83 4 51 58 2 53 73 28 32 24 33 12 52 29 3